Route 1: 0 1 28 97 4 27 94 25 7 0
Route 2: 0 8 9 95 2 71 75 36 70 0
Route 3: 0 41 43 100 16 52 64 44 42 62 0
Route 4: 0 56 53 82 78 59 31 34 0
Route 5: 0 51 85 65 54 38 47 5 57 39 0
Route 6: 0 92 35 14 58 10 12 23 99 45 60 3 18 0
Route 7: 0 77 91 80 69 33 15 20 73 17 89 0
Route 8: 0 24 29 46 48 63 26 61 87 81 88 86 0
Route 9: 0 50 74 72 79 49 21 40 90 67 19 0
Route 10: 0 37 11 30 93 84 83 32 66 76 6 96 13 0
Route 11: 0 55 22 98 68 0
